\ This file has been generated by DOcplex
\ ENCODING=ISO-8859-1
\Problem name: Knapsack

Maximize
 obj: 91 x_0 + 72 x_1 + 90 x_2 + 46 x_3 + 55 x_4 + 8 x_5 + 35 x_6 + 75 x_7
      + 61 x_8 + 15 x_9 + 77 x_10 + 40 x_11 + 63 x_12 + 75 x_13 + 29 x_14
      + 75 x_15 + 17 x_16 + 78 x_17 + 40 x_18 + 44 x_19
Subject To
 c0: 84 x_0 + 83 x_1 + 43 x_2 + 4 x_3 + 44 x_4 + 6 x_5 + 82 x_6 + 92 x_7
     + 25 x_8 + 83 x_9 + 56 x_10 + 18 x_11 + 58 x_12 + 14 x_13 + 48 x_14
     + 70 x_15 + 96 x_16 + 32 x_17 + 68 x_18 + 92 x_19 <= 879

Bounds
 0 <= x_0 <= 1
 0 <= x_1 <= 1
 0 <= x_2 <= 1
 0 <= x_3 <= 1
 0 <= x_4 <= 1
 0 <= x_5 <= 1
 0 <= x_6 <= 1
 0 <= x_7 <= 1
 0 <= x_8 <= 1
 0 <= x_9 <= 1
 0 <= x_10 <= 1
 0 <= x_11 <= 1
 0 <= x_12 <= 1
 0 <= x_13 <= 1
 0 <= x_14 <= 1
 0 <= x_15 <= 1
 0 <= x_16 <= 1
 0 <= x_17 <= 1
 0 <= x_18 <= 1
 0 <= x_19 <= 1

Binaries
 x_0 x_1 x_2 x_3 x_4 x_5 x_6 x_7 x_8 x_9 x_10 x_11 x_12 x_13 x_14 x_15 x_16 x_17
 x_18 x_19
End
